p cnf 91 377
1 -42 45 60 83 -87 0
3 4 -50 -68 89 -91 0
4 19 23 -50 -51 -68 0
-8 42 45 -60 83 -87 0
19 23 -50 51 68 -91 0
1 2 -32 56 59 0
3 4 -50 89 -91 0
-7 -8 -60 70 83 0
10 20 21 22 -69 0
10 20 22 69 -72 0
11 12 -19 -27 -28 0
11 12 -27 -28 57 0
11 -31 57 -76 -80 0
-15 29 -31 57 -73 0
-18 -19 -23 -47 -48 0
20 22 -41 53 -72 0
20 -38 53 -54 -72 0
52 -61 78 82 -84 0
3 -50 51 68 -91 0
7 42 45 46 60 0
29 -30 -31 58 -73 0
1 2 56 59 0
2 -6 -35 -74 0
-2 -5 -6 61 0
-2 -5 -6 -65 0
-3 -18 -19 -23 0
-3 -19 51 67 0
-3 50 67 -68 0
4 19 23 -91 0
-5 35 52 62 0
-6 37 62 82 0
7 9 -47 -48 0
-8 45 46 48 0
9 -48 55 64 0
-10 -26 -31 57 0
11 -31 58 76 0
-11 -58 76 80 0
12 14 -78 79 0
12 58 -73 78 0
13 -31 58 79 0
13 49 67 85 0
-16 -19 -49 -51 0
17 23 40 41 0
-18 47 -54 -64 0
-19 51 67 91 0
22 41 -53 -55 0
22 -44 71 -72 0
-22 -41 -53 70 0
23 25 27 56 0
23 -30 -33 -36 0
-23 25 65 80 0
25 28 33 59 0
-32 -33 -56 -61 0
-35 36 -63 82 0
2 3 35 59 0
2 56 -61 -62 0
-4 -61 78 84 0
-6 -24 -35 74 0
7 9 -43 45 0
-8 42 46 -55 0
-8 -42 60 -83 0
10 11 26 -28 0
12 -28 34 57 0
12 58 -73 -78 0
-13 68 -85 -91 0
-16 -50 -51 -89 0
-16 -51 67 68 0
17 23 41 -77 0
-17 -18 -19 -41 0
19 23 32 -33 0
19 23 47 64 0
19 23 -75 -76 0
-19 51 -81 -85 0
20 -38 41 -72 0
21 -69 70 -77 0
22 -41 -53 -72 0
25 27 34 -57 0
25 30 33 36 0
26 28 -31 57 0
29 -30 57 73 0
-31 58 78 79 0
40 43 45 -87 0
51 68 -81 -85 0
52 -61 -78 82 0
1 83 88 0
-1 -2 84 0
-1 -3 32 0
-1 -3 50 0
-1 8 62 0
-1 -24 -59 0
-1 70 72 0
2 6 35 0
3 -13 -49 0
3 17 18 0
3 -26 59 0
3 32 -56 0
-3 -23 67 0
4 16 23 0
4 52 84 0
4 52 -84 0
-4 -78 -84 0
7 -47 -89 0
8 -10 -70 0
-8 -9 -45 0
-8 -10 -83 0
-8 69 88 0
-8 71 88 0
9 -47 64 0
10 -34 -57 0
11 15 58 0
12 14 -79 0
12 -19 79 0
13 49 67 0
13 -51 67 0
-13 -85 -91 0
-13 86 90 0
14 -23 30 0
-14 -15 76 0
15 -29 73 0
-16 67 91 0
17 19 69 0
17 -21 -72 0
17 -44 -71 0
-17 22 -69 0
-17 -44 -77 0
18 39 60 0
-18 -38 71 0
-18 -43 46 0
-18 47 -55 0
19 51 85 0
-19 -25 36 0
-19 -34 -57 0
-19 -38 -54 0
-19 -40 -87 0
-19 -56 -88 0
-19 -81 -85 0
-19 -86 -89 0
20 -70 71 0
-20 -21 70 0
-20 -22 70 0
-20 70 77 0
-21 -77 88 0
23 38 54 0
23 74 75 0
-23 24 -32 0
-23 -28 -34 0
-23 -40 -43 0
-23 -53 -55 0
-23 86 89 0
24 -33 -35 0
-24 -25 -33 0
25 -65 -74 0
-29 30 -73 0
-31 -78 -79 0
-32 -34 56 0
36 -61 62 0
-38 54 72 0
-39 -40 -43 0
40 46 87 0
41 -45 48 0
41 48 -55 0
-42 46 -60 0
43 -44 77 0
46 -47 -64 0
46 71 -72 0
49 68 -86 0
50 66 89 0
50 -66 89 0
51 -81 85 0
-51 68 -81 0
-51 -68 -81 0
-58 -74 -76 0
-60 -69 88 0
65 -74 -82 0
66 67 -90 0
66 86 89 0
66 -86 90 0
-66 86 90 0
-68 89 -91 0
70 77 -88 0
70 -83 -88 0
-74 -75 76 0
1 10 0
1 55 0
1 -59 0
1 -62 0
1 -83 0
1 86 0
-1 15 0
-1 -56 0
-1 83 0
-1 -83 0
2 5 0
2 82 0
-2 35 0
3 4 0
3 7 0
3 -13 0
3 -16 0
3 -32 0
3 35 0
3 50 0
3 -62 0
3 -68 0
-3 -4 0
-3 51 0
-3 -51 0
-3 -87 0
-3 -89 0
4 8 0
4 33 0
4 61 0
4 -67 0
4 69 0
4 -82 0
-4 -63 0
-4 -84 0
5 -52 0
5 -62 0
5 63 0
5 -78 0
5 -82 0
-5 -35 0
-5 52 0
-5 -63 0
-5 74 0
-5 78 0
-5 -78 0
-5 84 0
6 -36 0
6 -37 0
6 -82 0
7 8 0
7 40 0
7 55 0
-7 -42 0
-7 -46 0
-7 83 0
-7 87 0
8 9 0
8 -37 0
8 46 0
8 50 0
8 60 0
8 70 0
-8 10 0
-8 -64 0
-8 71 0
-8 87 0
9 55 0
-9 -40 0
-9 43 0
-9 -46 0
10 59 0
10 -70 0
10 -72 0
10 -77 0
10 -88 0
-10 -11 0
-10 27 0
-10 -28 0
-10 59 0
11 14 0
11 26 0
11 34 0
11 80 0
-11 -57 0
-11 76 0
12 34 0
-12 -13 0
-12 31 0
-12 -57 0
-12 -58 0
-12 73 0
-12 79 0
-12 -79 0
13 57 0
13 -79 0
13 85 0
13 89 0
13 -90 0
13 91 0
-13 28 0
-13 57 0
-13 64 0
-13 -76 0
-13 86 0
-13 90 0
-13 91 0
14 31 0
14 -57 0
14 -58 0
-14 -31 0
-14 49 0
-14 57 0
-14 80 0
15 31 0
15 57 0
15 -57 0
15 -58 0
-15 -80 0
16 49 0
16 50 0
16 56 0
-16 -23 0
17 39 0
17 44 0
17 77 0
17 80 0
-17 18 0
-17 -40 0
-17 44 0
-17 46 0
-17 -48 0
-17 -58 0
18 21 0
18 41 0
18 42 0
18 47 0
18 54 0
18 64 0
18 69 0
-18 -60 0
-18 -77 0
-18 80 0
-18 81 0
-18 -86 0
19 -30 0
19 42 0
19 56 0
19 60 0
19 -65 0
19 75 0
19 -80 0
-19 25 0
-19 37 0
-19 -44 0
-19 -53 0
-19 -79 0
-19 80 0
-19 89 0
20 -54 0
20 69 0
20 -70 0
20 71 0
-20 -22 0
21 -72 0
21 88 0
21 -88 0
-21 22 0
-21 83 0
-21 -88 0
22 77 0
-22 -48 0
-22 53 0
-22 -71 0
-22 78 0
-22 -88 0
23 28 0
23 -36 0
23 38 0
23 40 0
23 43 0
23 47 0
23 59 0
23 60 0
23 -75 0
23 -85 0
23 -91 0
-23 -24 0
-23 -38 0
-23 -44 0
-23 -53 0
-23 -60 0
-23 -61 0
-23 79 0
-23 84 0
